runtime_files/msmp.tsp
NAME : mtspf
COMMENT : file for mtspf test
TYPE : ATSP
DIMENSION : 17
EDGE_WEIGHT_TYPE : EXPLICIT
EDGE_WEIGHT_FORMAT : FULL_MATRIX
EDGE_WEIGHT_SECTION
999999 999999 999999 999999 999999 4 9 7 10 7 7 9 8 8 8 8 13 
999999 999999 999999 999999 999999 4 7 5 8 5 7 7 8 6 6 6 11 
999999 999999 999999 999999 999999 4 5 5 8 5 7 7 8 6 4 4 9 
999999 999999 999999 999999 999999 12 5 7 4 7 7 5 8 6 6 6 3 
999999 999999 999999 999999 999999 14 7 9 6 9 9 7 8 8 8 8 3 
999999 999999 999999 999999 999999 0 9 9 8 5 5 7 12 10 8 6 11 
999999 999999 999999 999999 999999 9 0 2 5 10 12 10 3 1 1 3 4 
999999 999999 999999 999999 999999 9 2 0 5 10 12 10 3 1 1 3 6 
999999 999999 999999 999999 999999 8 5 5 0 5 7 5 8 6 4 4 3 
999999 999999 999999 999999 999999 5 10 10 5 0 2 2 13 11 9 7 8 
999999 999999 999999 999999 999999 5 12 12 7 2 0 2 15 13 11 9 10 
999999 999999 999999 999999 999999 7 10 10 5 2 2 0 13 11 9 9 8 
0 0 0 0 0 999999 999999 999999 999999 999999 999999 999999 999999 999999 999999 999999 999999 
0 0 0 0 0 999999 999999 999999 999999 999999 999999 999999 999999 999999 999999 999999 999999 
0 0 0 0 0 999999 999999 999999 999999 999999 999999 999999 999999 999999 999999 999999 999999 
0 0 0 0 0 999999 999999 999999 999999 999999 999999 999999 999999 999999 999999 999999 999999 
0 0 0 0 0 999999 999999 999999 999999 999999 999999 999999 999999 999999 999999 999999 999999 
